p cnf 268 792
c weights 1.0 1.0 2.718281828459045 0.36787944117144233 2.718281828459045 0.36787944117144233 2.718281828459045 0.36787944117144233 2.718281828459045 0.36787944117144233 2.718281828459045 0.36787944117144233 1.0 1.0 2.718281828459045 0.36787944117144233 2.718281828459045 0.36787944117144233 2.718281828459045 0.36787944117144233 2.718281828459045 0.36787944117144233 2.718281828459045 0.36787944117144233 2.718281828459045 0.36787944117144233 2.718281828459045 0.36787944117144233 1.0 1.0 2.718281828459045 0.36787944117144233 2.718281828459045 0.36787944117144233 2.718281828459045 0.36787944117144233 2.718281828459045 0.36787944117144233 2.718281828459045 0.36787944117144233 2.718281828459045 0.36787944117144233 2.718281828459045 0.36787944117144233 1.0 1.0 2.718281828459045 0.36787944117144233 2.718281828459045 0.36787944117144233 2.718281828459045 0.36787944117144233 2.718281828459045 0.36787944117144233 2.718281828459045 0.36787944117144233 2.718281828459045 0.36787944117144233 2.718281828459045 0.36787944117144233 2.718281828459045 0.36787944117144233 1.0 1.0 2.718281828459045 0.36787944117144233 2.718281828459045 0.36787944117144233 2.718281828459045 0.36787944117144233 2.718281828459045 0.36787944117144233 2.718281828459045 0.36787944117144233 2.718281828459045 0.36787944117144233 1.0 1.0 2.718281828459045 0.36787944117144233 2.718281828459045 0.36787944117144233 2.718281828459045 0.36787944117144233 2.718281828459045 0.36787944117144233 2.718281828459045 0.36787944117144233 1.0 1.0 2.718281828459045 0.36787944117144233 2.718281828459045 0.36787944117144233 2.718281828459045 0.36787944117144233 2.718281828459045 0.36787944117144233 2.718281828459045 0.36787944117144233 2.718281828459045 0.36787944117144233 2.718281828459045 0.36787944117144233 1.0 1.0 2.718281828459045 0.36787944117144233 2.718281828459045 0.36787944117144233 2.718281828459045 0.36787944117144233 1.0 1.0 2.718281828459045 0.36787944117144233 2.718281828459045 0.36787944117144233 2.718281828459045 0.36787944117144233 2.718281828459045 0.36787944117144233 2.718281828459045 0.36787944117144233 2.718281828459045 0.36787944117144233 2.718281828459045 0.36787944117144233 2.718281828459045 0.36787944117144233 2.718281828459045 0.36787944117144233 1.0 1.0 2.718281828459045 0.36787944117144233 2.718281828459045 0.36787944117144233 2.718281828459045 0.36787944117144233 1.0 1.0 2.718281828459045 0.36787944117144233 2.718281828459045 0.36787944117144233 2.718281828459045 0.36787944117144233 2.718281828459045 0.36787944117144233 1.0 1.0 2.718281828459045 0.36787944117144233 2.718281828459045 0.36787944117144233 2.718281828459045 0.36787944117144233 2.718281828459045 0.36787944117144233 2.718281828459045 0.36787944117144233 2.718281828459045 0.36787944117144233 1.0 1.0 2.718281828459045 0.36787944117144233 2.718281828459045 0.36787944117144233 2.718281828459045 0.36787944117144233 2.718281828459045 0.36787944117144233 2.718281828459045 0.36787944117144233 1.0 1.0 2.718281828459045 0.36787944117144233 2.718281828459045 0.36787944117144233 1.0 1.0 2.718281828459045 0.36787944117144233 2.718281828459045 0.36787944117144233 2.718281828459045 0.36787944117144233 2.718281828459045 0.36787944117144233 2.718281828459045 0.36787944117144233 2.718281828459045 0.36787944117144233 1.0 1.0 2.718281828459045 0.36787944117144233 2.718281828459045 0.36787944117144233 2.718281828459045 0.36787944117144233 1.0 1.0 2.718281828459045 0.36787944117144233 2.718281828459045 0.36787944117144233 2.718281828459045 0.36787944117144233 2.718281828459045 0.36787944117144233 2.718281828459045 0.36787944117144233 1.0 1.0 2.718281828459045 0.36787944117144233 2.718281828459045 0.36787944117144233 2.718281828459045 0.36787944117144233 2.718281828459045 0.36787944117144233 2.718281828459045 0.36787944117144233 2.718281828459045 0.36787944117144233 2.718281828459045 0.36787944117144233 2.718281828459045 0.36787944117144233 1.0 1.0 2.718281828459045 0.36787944117144233 2.718281828459045 0.36787944117144233 1.0 1.0 2.718281828459045 0.36787944117144233 2.718281828459045 0.36787944117144233 2.718281828459045 0.36787944117144233 1.0 1.0 2.718281828459045 0.36787944117144233 2.718281828459045 0.36787944117144233 2.718281828459045 0.36787944117144233 2.718281828459045 0.36787944117144233 2.718281828459045 0.36787944117144233 1.0 1.0 2.718281828459045 0.36787944117144233 2.718281828459045 0.36787944117144233 1.0 1.0 2.718281828459045 0.36787944117144233 2.718281828459045 0.36787944117144233 2.718281828459045 0.36787944117144233 2.718281828459045 0.36787944117144233 2.718281828459045 0.36787944117144233 1.0 1.0 2.718281828459045 0.36787944117144233 1.0 1.0 2.718281828459045 0.36787944117144233 2.718281828459045 0.36787944117144233 2.718281828459045 0.36787944117144233 1.0 1.0 2.718281828459045 0.36787944117144233 1.0 1.0 2.718281828459045 0.36787944117144233 2.718281828459045 0.36787944117144233 2.718281828459045 0.36787944117144233 2.718281828459045 0.36787944117144233 2.718281828459045 0.36787944117144233 2.718281828459045 0.36787944117144233 1.0 1.0 1.0 1.0 2.718281828459045 0.36787944117144233 2.718281828459045 0.36787944117144233 1.0 1.0 2.718281828459045 0.36787944117144233 2.718281828459045 0.36787944117144233 1.0 1.0 2.718281828459045 0.36787944117144233 1.0 1.0 2.718281828459045 0.36787944117144233 2.718281828459045 0.36787944117144233 2.718281828459045 0.36787944117144233 2.718281828459045 0.36787944117144233 2.718281828459045 0.36787944117144233 1.0 1.0 2.718281828459045 0.36787944117144233 2.718281828459045 0.36787944117144233 2.718281828459045 0.36787944117144233 2.718281828459045 0.36787944117144233 2.718281828459045 0.36787944117144233 1.0 1.0 2.718281828459045 0.36787944117144233 2.718281828459045 0.36787944117144233 2.718281828459045 0.36787944117144233 1.0 1.0 2.718281828459045 0.36787944117144233 2.718281828459045 0.36787944117144233 2.718281828459045 0.36787944117144233 1.0 1.0 2.718281828459045 0.36787944117144233 1.0 1.0 2.718281828459045 0.36787944117144233 2.718281828459045 0.36787944117144233 1.0 1.0 2.718281828459045 0.36787944117144233 2.718281828459045 0.36787944117144233 2.718281828459045 0.36787944117144233 2.718281828459045 0.36787944117144233 2.718281828459045 0.36787944117144233 2.718281828459045 0.36787944117144233 1.0 1.0 2.718281828459045 0.36787944117144233 2.718281828459045 0.36787944117144233 1.0 1.0 2.718281828459045 0.36787944117144233 2.718281828459045 0.36787944117144233 2.718281828459045 0.36787944117144233 2.718281828459045 0.36787944117144233 1.0 1.0 2.718281828459045 0.36787944117144233 1.0 1.0 1.0 1.0 2.718281828459045 0.36787944117144233 2.718281828459045 0.36787944117144233 2.718281828459045 0.36787944117144233 2.718281828459045 0.36787944117144233 1.0 1.0 2.718281828459045 0.36787944117144233 2.718281828459045 0.36787944117144233 1.0 1.0 2.718281828459045 0.36787944117144233 2.718281828459045 0.36787944117144233 1.0 1.0 2.718281828459045 0.36787944117144233 2.718281828459045 0.36787944117144233 1.0 1.0 2.718281828459045 0.36787944117144233 2.718281828459045 0.36787944117144233 1.0 1.0 2.718281828459045 0.36787944117144233 2.718281828459045 0.36787944117144233 2.718281828459045 0.36787944117144233 2.718281828459045 0.36787944117144233 1.0 1.0 2.718281828459045 0.36787944117144233 2.718281828459045 0.36787944117144233 1.0 1.0 2.718281828459045 0.36787944117144233 2.718281828459045 0.36787944117144233 1.0 1.0 1.0 1.0 2.718281828459045 0.36787944117144233 1.0 1.0 2.718281828459045 0.36787944117144233 2.718281828459045 0.36787944117144233 2.718281828459045 0.36787944117144233 2.718281828459045 0.36787944117144233 1.0 1.0 1.0 1.0 1.0 1.0 1.0 1.0 2.718281828459045 0.36787944117144233 2.718281828459045 0.36787944117144233 1.0 1.0 2.718281828459045 0.36787944117144233 1.0 1.0 1.0 1.0 2.718281828459045 0.36787944117144233 1.0 1.0 2.718281828459045 0.36787944117144233 1.0 1.0 2.718281828459045 0.36787944117144233 1.0 1.0 2.718281828459045 0.36787944117144233 1.0 1.0 1.0 1.0 2.718281828459045 0.36787944117144233 1.0 1.0 2.718281828459045 0.36787944117144233 1.0 1.0 1.0 1.0 1.0 1.0 1.0 1.0
2 1 71 0
2 -1 -71 0
-2 1 -71 0
-2 -1 71 0
3 1 121 0
3 -1 -121 0
-3 1 -121 0
-3 -1 121 0
4 1 125 0
4 -1 -125 0
-4 1 -125 0
-4 -1 125 0
5 1 170 0
5 -1 -170 0
-5 1 -170 0
-5 -1 170 0
6 1 260 0
6 -1 -260 0
-6 1 -260 0
-6 -1 260 0
8 7 196 0
8 -7 -196 0
-8 7 -196 0
-8 -7 196 0
9 7 199 0
9 -7 -199 0
-9 7 -199 0
-9 -7 199 0
10 7 212 0
10 -7 -212 0
-10 7 -212 0
-10 -7 212 0
11 7 218 0
11 -7 -218 0
-11 7 -218 0
-11 -7 218 0
12 7 238 0
12 -7 -238 0
-12 7 -238 0
-12 -7 238 0
13 7 245 0
13 -7 -245 0
-13 7 -245 0
-13 -7 245 0
14 7 251 0
14 -7 -251 0
-14 7 -251 0
-14 -7 251 0
16 15 71 0
16 -15 -71 0
-16 15 -71 0
-16 -15 71 0
17 15 140 0
17 -15 -140 0
-17 15 -140 0
-17 -15 140 0
18 15 142 0
18 -15 -142 0
-18 15 -142 0
-18 -15 142 0
19 15 156 0
19 -15 -156 0
-19 15 -156 0
-19 -15 156 0
20 15 221 0
20 -15 -221 0
-20 15 -221 0
-20 -15 221 0
21 15 243 0
21 -15 -243 0
-21 15 -243 0
-21 -15 243 0
22 15 251 0
22 -15 -251 0
-22 15 -251 0
-22 -15 251 0
24 23 57 0
24 -23 -57 0
-24 23 -57 0
-24 -23 57 0
25 23 67 0
25 -23 -67 0
-25 23 -67 0
-25 -23 67 0
26 23 121 0
26 -23 -121 0
-26 23 -121 0
-26 -23 121 0
27 23 170 0
27 -23 -170 0
-27 23 -170 0
-27 -23 170 0
28 23 176 0
28 -23 -176 0
-28 23 -176 0
-28 -23 176 0
29 23 215 0
29 -23 -215 0
-29 23 -215 0
-29 -23 215 0
30 23 260 0
30 -23 -260 0
-30 23 -260 0
-30 -23 260 0
31 23 266 0
31 -23 -266 0
-31 23 -266 0
-31 -23 266 0
33 32 125 0
33 -32 -125 0
-33 32 -125 0
-33 -32 125 0
34 32 134 0
34 -32 -134 0
-34 32 -134 0
-34 -32 134 0
35 32 170 0
35 -32 -170 0
-35 32 -170 0
-35 -32 170 0
36 32 176 0
36 -32 -176 0
-36 32 -176 0
-36 -32 176 0
37 32 252 0
37 -32 -252 0
-37 32 -252 0
-37 -32 252 0
38 32 261 0
38 -32 -261 0
-38 32 -261 0
-38 -32 261 0
40 39 155 0
40 -39 -155 0
-40 39 -155 0
-40 -39 155 0
41 39 204 0
41 -39 -204 0
-41 39 -204 0
-41 -39 204 0
42 39 224 0
42 -39 -224 0
-42 39 -224 0
-42 -39 224 0
43 39 229 0
43 -39 -229 0
-43 39 -229 0
-43 -39 229 0
44 39 251 0
44 -39 -251 0
-44 39 -251 0
-44 -39 251 0
46 45 103 0
46 -45 -103 0
-46 45 -103 0
-46 -45 103 0
47 45 155 0
47 -45 -155 0
-47 45 -155 0
-47 -45 155 0
48 45 180 0
48 -45 -180 0
-48 45 -180 0
-48 -45 180 0
49 45 207 0
49 -45 -207 0
-49 45 -207 0
-49 -45 207 0
50 45 235 0
50 -45 -235 0
-50 45 -235 0
-50 -45 235 0
51 45 256 0
51 -45 -256 0
-51 45 -256 0
-51 -45 256 0
52 45 261 0
52 -45 -261 0
-52 45 -261 0
-52 -45 261 0
54 53 140 0
54 -53 -140 0
-54 53 -140 0
-54 -53 140 0
55 53 159 0
55 -53 -159 0
-55 53 -159 0
-55 -53 159 0
56 53 235 0
56 -53 -235 0
-56 53 -235 0
-56 -53 235 0
58 57 76 0
58 -57 -76 0
-58 57 -76 0
-58 -57 76 0
59 57 83 0
59 -57 -83 0
-59 57 -83 0
-59 -57 83 0
60 57 140 0
60 -57 -140 0
-60 57 -140 0
-60 -57 140 0
61 57 148 0
61 -57 -148 0
-61 57 -148 0
-61 -57 148 0
62 57 186 0
62 -57 -186 0
-62 57 -186 0
-62 -57 186 0
63 57 221 0
63 -57 -221 0
-63 57 -221 0
-63 -57 221 0
64 57 235 0
64 -57 -235 0
-64 57 -235 0
-64 -57 235 0
65 57 244 0
65 -57 -244 0
-65 57 -244 0
-65 -57 244 0
66 57 260 0
66 -57 -260 0
-66 57 -260 0
-66 -57 260 0
68 67 164 0
68 -67 -164 0
-68 67 -164 0
-68 -67 164 0
69 67 196 0
69 -67 -196 0
-69 67 -196 0
-69 -67 196 0
70 67 268 0
70 -67 -268 0
-70 67 -268 0
-70 -67 268 0
72 71 140 0
72 -71 -140 0
-72 71 -140 0
-72 -71 140 0
73 71 199 0
73 -71 -199 0
-73 71 -199 0
-73 -71 199 0
74 71 244 0
74 -71 -244 0
-74 71 -244 0
-74 -71 244 0
75 71 260 0
75 -71 -260 0
-75 71 -260 0
-75 -71 260 0
77 76 134 0
77 -76 -134 0
-77 76 -134 0
-77 -76 134 0
78 76 156 0
78 -76 -156 0
-78 76 -156 0
-78 -76 156 0
79 76 206 0
79 -76 -206 0
-79 76 -206 0
-79 -76 206 0
80 76 235 0
80 -76 -235 0
-80 76 -235 0
-80 -76 235 0
81 76 244 0
81 -76 -244 0
-81 76 -244 0
-81 -76 244 0
82 76 252 0
82 -76 -252 0
-82 76 -252 0
-82 -76 252 0
84 83 140 0
84 -83 -140 0
-84 83 -140 0
-84 -83 140 0
85 83 221 0
85 -83 -221 0
-85 83 -221 0
-85 -83 221 0
86 83 224 0
86 -83 -224 0
-86 83 -224 0
-86 -83 224 0
87 83 244 0
87 -83 -244 0
-87 83 -244 0
-87 -83 244 0
88 83 256 0
88 -83 -256 0
-88 83 -256 0
-88 -83 256 0
90 89 155 0
90 -89 -155 0
-90 89 -155 0
-90 -89 155 0
91 89 186 0
91 -89 -186 0
-91 89 -186 0
-91 -89 186 0
93 92 118 0
93 -92 -118 0
-93 92 -118 0
-93 -92 118 0
94 92 125 0
94 -92 -125 0
-94 92 -125 0
-94 -92 125 0
95 92 155 0
95 -92 -155 0
-95 92 -155 0
-95 -92 155 0
96 92 170 0
96 -92 -170 0
-96 92 -170 0
-96 -92 170 0
97 92 199 0
97 -92 -199 0
-97 92 -199 0
-97 -92 199 0
98 92 238 0
98 -92 -238 0
-98 92 -238 0
-98 -92 238 0
100 99 170 0
100 -99 -170 0
-100 99 -170 0
-100 -99 170 0
101 99 229 0
101 -99 -229 0
-101 99 -229 0
-101 -99 229 0
102 99 244 0
102 -99 -244 0
-102 99 -244 0
-102 -99 244 0
104 103 109 0
104 -103 -109 0
-104 103 -109 0
-104 -103 109 0
105 103 134 0
105 -103 -134 0
-105 103 -134 0
-105 -103 134 0
106 103 224 0
106 -103 -224 0
-106 103 -224 0
-106 -103 224 0
107 103 254 0
107 -103 -254 0
-107 103 -254 0
-107 -103 254 0
108 103 261 0
108 -103 -261 0
-108 103 -261 0
-108 -103 261 0
110 109 199 0
110 -109 -199 0
-110 109 -199 0
-110 -109 199 0
111 109 207 0
111 -109 -207 0
-111 109 -207 0
-111 -109 207 0
112 109 224 0
112 -109 -224 0
-112 109 -224 0
-112 -109 224 0
113 109 238 0
113 -109 -238 0
-113 109 -238 0
-113 -109 238 0
114 109 243 0
114 -109 -243 0
-114 109 -243 0
-114 -109 243 0
115 109 244 0
115 -109 -244 0
-115 109 -244 0
-115 -109 244 0
116 109 245 0
116 -109 -245 0
-116 109 -245 0
-116 -109 245 0
117 109 251 0
117 -109 -251 0
-117 109 -251 0
-117 -109 251 0
119 118 186 0
119 -118 -186 0
-119 118 -186 0
-119 -118 186 0
120 118 218 0
120 -118 -218 0
-120 118 -218 0
-120 -118 218 0
122 121 164 0
122 -121 -164 0
-122 121 -164 0
-122 -121 164 0
123 121 224 0
123 -121 -224 0
-123 121 -224 0
-123 -121 224 0
124 121 263 0
124 -121 -263 0
-124 121 -263 0
-124 -121 263 0
126 125 159 0
126 -125 -159 0
-126 125 -159 0
-126 -125 159 0
127 125 212 0
127 -125 -212 0
-127 125 -212 0
-127 -125 212 0
128 125 218 0
128 -125 -218 0
-128 125 -218 0
-128 -125 218 0
129 125 221 0
129 -125 -221 0
-129 125 -221 0
-129 -125 221 0
130 125 235 0
130 -125 -235 0
-130 125 -235 0
-130 -125 235 0
132 131 148 0
132 -131 -148 0
-132 131 -148 0
-132 -131 148 0
133 131 189 0
133 -131 -189 0
-133 131 -189 0
-133 -131 189 0
135 134 164 0
135 -134 -164 0
-135 134 -164 0
-135 -134 164 0
136 134 170 0
136 -134 -170 0
-136 134 -170 0
-136 -134 170 0
137 134 184 0
137 -134 -184 0
-137 134 -184 0
-137 -134 184 0
138 134 245 0
138 -134 -245 0
-138 134 -245 0
-138 -134 245 0
139 134 254 0
139 -134 -254 0
-139 134 -254 0
-139 -134 254 0
141 140 218 0
141 -140 -218 0
-141 140 -218 0
-141 -140 218 0
143 142 176 0
143 -142 -176 0
-143 142 -176 0
-143 -142 176 0
144 142 199 0
144 -142 -199 0
-144 142 -199 0
-144 -142 199 0
145 142 229 0
145 -142 -229 0
-145 142 -229 0
-145 -142 229 0
147 146 258 0
147 -146 -258 0
-147 146 -258 0
-147 -146 258 0
149 148 155 0
149 -148 -155 0
-149 148 -155 0
-149 -148 155 0
150 148 170 0
150 -148 -170 0
-150 148 -170 0
-150 -148 170 0
151 148 186 0
151 -148 -186 0
-151 148 -186 0
-151 -148 186 0
152 148 204 0
152 -148 -204 0
-152 148 -204 0
-152 -148 204 0
153 148 244 0
153 -148 -244 0
-153 148 -244 0
-153 -148 244 0
154 148 267 0
154 -148 -267 0
-154 148 -267 0
-154 -148 267 0
157 156 164 0
157 -156 -164 0
-157 156 -164 0
-157 -156 164 0
158 156 246 0
158 -156 -246 0
-158 156 -246 0
-158 -156 246 0
160 159 204 0
160 -159 -204 0
-160 159 -204 0
-160 -159 204 0
161 159 206 0
161 -159 -206 0
-161 159 -206 0
-161 -159 206 0
163 162 184 0
163 -162 -184 0
-163 162 -184 0
-163 -162 184 0
165 164 170 0
165 -164 -170 0
-165 164 -170 0
-165 -164 170 0
166 164 186 0
166 -164 -186 0
-166 164 -186 0
-166 -164 186 0
167 164 218 0
167 -164 -218 0
-167 164 -218 0
-167 -164 218 0
168 164 224 0
168 -164 -224 0
-168 164 -224 0
-168 -164 224 0
169 164 235 0
169 -164 -235 0
-169 164 -235 0
-169 -164 235 0
171 170 184 0
171 -170 -184 0
-171 170 -184 0
-171 -170 184 0
172 170 249 0
172 -170 -249 0
-172 170 -249 0
-172 -170 249 0
173 170 251 0
173 -170 -251 0
-173 170 -251 0
-173 -170 251 0
174 170 260 0
174 -170 -260 0
-174 170 -260 0
-174 -170 260 0
175 170 268 0
175 -170 -268 0
-175 170 -268 0
-175 -170 268 0
177 176 256 0
177 -176 -256 0
-177 176 -256 0
-177 -176 256 0
178 176 260 0
178 -176 -260 0
-178 176 -260 0
-178 -176 260 0
179 176 266 0
179 -176 -266 0
-179 176 -266 0
-179 -176 266 0
181 180 196 0
181 -180 -196 0
-181 180 -196 0
-181 -180 196 0
182 180 238 0
182 -180 -238 0
-182 180 -238 0
-182 -180 238 0
183 180 260 0
183 -180 -260 0
-183 180 -260 0
-183 -180 260 0
185 184 261 0
185 -184 -261 0
-185 184 -261 0
-185 -184 261 0
187 186 212 0
187 -186 -212 0
-187 186 -212 0
-187 -186 212 0
188 186 267 0
188 -186 -267 0
-188 186 -267 0
-188 -186 267 0
190 189 215 0
190 -189 -215 0
-190 189 -215 0
-190 -189 215 0
191 189 244 0
191 -189 -244 0
-191 189 -244 0
-191 -189 244 0
192 189 245 0
192 -189 -245 0
-192 189 -245 0
-192 -189 245 0
193 189 249 0
193 -189 -249 0
-193 189 -249 0
-193 -189 249 0
194 189 261 0
194 -189 -261 0
-194 189 -261 0
-194 -189 261 0
195 189 268 0
195 -189 -268 0
-195 189 -268 0
-195 -189 268 0
197 196 238 0
197 -196 -238 0
-197 196 -238 0
-197 -196 238 0
198 196 254 0
198 -196 -254 0
-198 196 -254 0
-198 -196 254 0
200 199 238 0
200 -199 -238 0
-200 199 -238 0
-200 -199 238 0
201 199 251 0
201 -199 -251 0
-201 199 -251 0
-201 -199 251 0
202 199 254 0
202 -199 -254 0
-202 199 -254 0
-202 -199 254 0
203 199 267 0
203 -199 -267 0
-203 199 -267 0
-203 -199 267 0
205 204 235 0
205 -204 -235 0
-205 204 -235 0
-205 -204 235 0
208 207 221 0
208 -207 -221 0
-208 207 -221 0
-208 -207 221 0
209 207 229 0
209 -207 -229 0
-209 207 -229 0
-209 -207 229 0
210 207 235 0
210 -207 -235 0
-210 207 -235 0
-210 -207 235 0
211 207 244 0
211 -207 -244 0
-211 207 -244 0
-211 -207 244 0
213 212 215 0
213 -212 -215 0
-213 212 -215 0
-213 -212 215 0
214 212 265 0
214 -212 -265 0
-214 212 -265 0
-214 -212 265 0
216 215 254 0
216 -215 -254 0
-216 215 -254 0
-216 -215 254 0
217 215 256 0
217 -215 -256 0
-217 215 -256 0
-217 -215 256 0
219 218 244 0
219 -218 -244 0
-219 218 -244 0
-219 -218 244 0
220 218 251 0
220 -218 -251 0
-220 218 -251 0
-220 -218 251 0
222 221 249 0
222 -221 -249 0
-222 221 -249 0
-222 -221 249 0
223 221 252 0
223 -221 -252 0
-223 221 -252 0
-223 -221 252 0
225 224 229 0
225 -224 -229 0
-225 224 -229 0
-225 -224 229 0
226 224 249 0
226 -224 -249 0
-226 224 -249 0
-226 -224 249 0
227 224 251 0
227 -224 -251 0
-227 224 -251 0
-227 -224 251 0
228 224 267 0
228 -224 -267 0
-228 224 -267 0
-228 -224 267 0
230 229 261 0
230 -229 -261 0
-230 229 -261 0
-230 -229 261 0
231 229 267 0
231 -229 -267 0
-231 229 -267 0
-231 -229 267 0
233 232 245 0
233 -232 -245 0
-233 232 -245 0
-233 -232 245 0
234 232 256 0
234 -232 -256 0
-234 232 -256 0
-234 -232 256 0
237 236 238 0
237 -236 -238 0
-237 236 -238 0
-237 -236 238 0
239 238 243 0
239 -238 -243 0
-239 238 -243 0
-239 -238 243 0
240 238 251 0
240 -238 -251 0
-240 238 -251 0
-240 -238 251 0
241 238 256 0
241 -238 -256 0
-241 238 -256 0
-241 -238 256 0
242 238 260 0
242 -238 -260 0
-242 238 -260 0
-242 -238 260 0
247 246 254 0
247 -246 -254 0
-247 246 -254 0
-247 -246 254 0
248 246 266 0
248 -246 -266 0
-248 246 -266 0
-248 -246 266 0
250 249 267 0
250 -249 -267 0
-250 249 -267 0
-250 -249 267 0
253 252 268 0
253 -252 -268 0
-253 252 -268 0
-253 -252 268 0
255 254 263 0
255 -254 -263 0
-255 254 -263 0
-255 -254 263 0
257 256 258 0
257 -256 -258 0
-257 256 -258 0
-257 -256 258 0
259 258 261 0
259 -258 -261 0
-259 258 -261 0
-259 -258 261 0
262 261 268 0
262 -261 -268 0
-262 261 -268 0
-262 -261 268 0
264 263 267 0
264 -263 -267 0
-264 263 -267 0
-264 -263 267 0
